/* Objective function */
min: -0.1 f[0][0] -0.1 f[0][1] -0.1 f[0][2] -0.1 f[0][3] -0.1 f[0][4] -0.1 f[0][5] -0.1 f[1][0] -0.1 f[1][1]
 -0.1 f[1][2] -0.1 f[1][3] -0.1 f[1][4] -0.1 f[1][5] -0.1 f[2][0] -0.1 f[2][1] -0.1 f[2][2] -0.1 f[2][3]
 -0.1 f[2][4] +f[2][5] +n[0][1] +n[0][2] +n[0][3] +n[0][4] +n[0][5] +n[0][6] +n[1][1] +n[1][2] +n[1][3]
 +n[1][4] +n[1][5] +n[1][6] +n[2][1] +n[2][2] +n[2][3] +n[2][4] +n[2][5];

/* Constraints */
ORCONS[0][4]: +f[0][3] -1.37240249188 n[0][3] <= 0;
MLCONS[2][5]: -f[1][4] +f[2][4] -n[2][4] +n[2][5] = 0.139;
MLCONS[1][3]: -f[0][2] +f[1][2] -n[1][2] +n[1][3] = 0.139;
MLCONS[2][3]: -f[1][2] +f[2][2] -n[2][2] +n[2][3] = 0.139;
ORCONS[2][1]: +f[2][0] -1.37240249188 n[1][6] <= 0;
MLCONS[1][5]: -f[0][4] +f[1][4] -n[1][4] +n[1][5] = 0.139;
ORCONS[2][3]: +f[2][2] -1.37240249188 n[2][2] <= 0;
MLFLW_CNG[0][4]: +f[0][3] +0.201047374194 n[1][3] <= -0.00123231588862;
MLCONS[0][4]: +f[0][3] -n[0][3] +n[0][4] = 0;
MLCONS[0][2]: +f[0][1] -n[0][1] +n[0][2] = 0;
ORCONS[0][3]: +f[0][2] -1.37240249188 n[0][2] <= 0;
MLFLW_CNG[1][5]: +f[1][4] +0.201047374194 n[2][4] <= -0.00123231588862;
ORCONS[1][5]: +f[1][4] -1.37240249188 n[1][4] <= 0;
MLCONS[2][1]: -f[1][0] +f[2][0] -n[1][6] +n[2][1] = 0.139;
ORCONS[0][1]: +f[0][0] -1.37240249188 f[2][5] <= 0;
MLFLW_CNG[1][3]: +f[1][2] +0.201047374194 n[2][2] <= -0.00123231588862;
MLFLW_CNG[0][3]: +f[0][2] +0.201047374194 n[1][2] <= -0.00123231588862;
ORCONS[2][5]: +f[2][4] -1.37240249188 n[2][4] <= 0;
MLCONS[0][0]: +f[2][5] = 0;
ORCONS[1][3]: +f[1][2] -1.37240249188 n[1][2] <= 0;
MLFLW_CNG[0][1]: +f[0][0] +0.201047374194 n[0][6] <= -0.00123231588862;
MLCONS[1][1]: -f[0][0] +f[1][0] -n[0][6] +n[1][1] = 0.139;
ORCONS[1][1]: +f[1][0] -1.37240249188 n[0][6] <= 0;
MLFLW_CNG[1][1]: +f[1][0] +0.201047374194 n[1][6] <= -0.00123231588862;
MLCONS[0][1]: +f[0][0] -f[2][5] +n[0][1] = 0;
MLCONS[1][2]: -f[0][1] +f[1][1] -n[1][1] +n[1][2] = 0.139;
MLCONS[2][4]: -f[1][3] +f[2][3] -n[2][3] +n[2][4] = 0.139;
ORCONS[2][2]: +f[2][1] -1.37240249188 n[2][1] <= 0;
MLFLW_CNG[1][0]: +f[0][5] <= -0.00123231588862;
MLFLW_CNG[0][5]: +f[0][4] +0.201047374194 n[1][4] <= -0.00123231588862;
ORCONS[2][0]: +f[1][5] <= 0;
MLCONS[1][4]: -f[0][3] +f[1][3] -n[1][3] +n[1][4] = 0.139;
MLCONS[0][5]: +f[0][4] -n[0][4] +n[0][5] = 0;
MLCONS[0][3]: +f[0][2] -n[0][2] +n[0][3] = 0;
ORCONS[0][2]: +f[0][1] -1.37240249188 n[0][1] <= 0;
ORCONS[1][4]: +f[1][3] -1.37240249188 n[1][3] <= 0;
ORCONS[0][0]: 0 f[0][0] <= 0;
MLCONS[2][0]: -f[0][5] +f[1][5] +n[1][6] = 0.139;
MLFLW_CNG[1][4]: +f[1][3] +0.201047374194 n[2][3] <= -0.00123231588862;
MLCONS[2][2]: -f[1][1] +f[2][1] -n[2][1] +n[2][2] = 0.139;
MLFLW_CNG[1][2]: +f[1][1] +0.201047374194 n[2][1] <= -0.00123231588862;
ORCONS[2][4]: +f[2][3] -1.37240249188 n[2][3] <= 0;
MLFLW_CNG[0][2]: +f[0][1] +0.201047374194 n[1][1] <= -0.00123231588862;
MLFLW_CNG[0][0]: 0 f[0][0] <= -0.00123231588862;
MLCONS[1][0]: +f[0][5] +n[0][6] = 0.139;
ORCONS[1][0]: +f[0][5] <= 0;
ORCONS[0][5]: +f[0][4] -1.37240249188 n[0][4] <= 0;
ORCONS[1][2]: +f[1][1] -1.37240249188 n[1][1] <= 0;
MLFLW_CAP[2][5]: +f[2][4] <= 2.590434;
MLFLW_CAP[2][4]: +f[2][3] <= 2.590434;
MLFLW_CAP[0][5]: +f[0][4] <= 2.590434;
MLFLW_CAP[0][4]: +f[0][3] <= 2.590434;
MLFLW_CAP[1][5]: +f[1][4] <= 2.590434;
MLFLW_CAP[1][4]: +f[1][3] <= 2.590434;
MLFLW_CAP[0][3]: +f[0][2] <= 2.590434;
MLFLW_CAP[2][0]: +f[1][5] <= 2.590434;
MLFLW_CAP[0][0]: 0 f[0][0] <= 2.590434;
MLFLW_CAP[0][1]: +f[0][0] <= 2.590434;
MLFLW_CAP[1][2]: +f[1][1] <= 2.590434;
MLFLW_CAP[2][1]: +f[2][0] <= 2.590434;
MLFLW_CAP[0][2]: +f[0][1] <= 2.590434;
MLFLW_CAP[1][0]: +f[0][5] <= 2.590434;
MLFLW_CAP[2][3]: +f[2][2] <= 2.590434;
MLFLW_CAP[1][1]: +f[1][0] <= 2.590434;
MLFLW_CAP[2][2]: +f[2][1] <= 2.590434;
MLFLW_CAP[1][3]: +f[1][2] <= 2.590434;
